param total_customers := 10 ;
set Likes[1] := akuof byyii dlust ;
set Dislikes[1] := xdozp ;
set Likes[2] := dlust luncl qzfyo ;
set Dislikes[2] := xdozp ;
set Likes[3] := akuof luncl vxglq ;
set Dislikes[3] := qzfyo ;
set Likes[4] := dlust vxglq luncl ;
set Dislikes[4] :=  ;
set Likes[5] := dlust xveqd tfeej ;
set Dislikes[5] :=  ;
set Likes[6] := qzfyo vxglq luncl ;
set Dislikes[6] := byyii ;
set Likes[7] := luncl xdozp xveqd ;
set Dislikes[7] := sunhp ;
set Likes[8] := byyii xdozp tfeej ;
set Dislikes[8] := qzfyo ;
set Likes[9] := dlust akuof tfeej ;
set Dislikes[9] := xveqd ;
set Likes[10] := vxglq dlust byyii ;
set Dislikes[10] := akuof ;
set INGR :=
akuof byyii dlust luncl qzfyo sunhp tfeej vxglq xdozp xveqd
;
